7966
28, 26, 47, 29, 30, 2, 7, 42, 21, 17, 3, 18, 31, 23, 20, 50, 16, 46, 48, 24, 15, 43, 33, 10, 9, 8, 41, 19, 45, 32, 49, 22, 1, 44, 34, 35, 36, 39, 40, 37, 38, 5, 6, 4, 25, 12, 51, 11, 52, 14, 13, 27
